GLPSOL--GLPK LP/MIP Solver 5.0
Parameter(s) specified in the command line:
 --lp ../modeles/4_374.lp --log 4_374.log
Reading problem data from '../modeles/4_374.lp'...
1513 rows, 3000 columns, 10484 non-zeros
1496 integer variables, all of which are binary
4523 lines were read
GLPK Integer Optimizer 5.0
1513 rows, 3000 columns, 10484 non-zeros
1496 integer variables, all of which are binary
Preprocessing...
1480 constraint coefficient(s) were reduced
1513 rows, 2996 columns, 10480 non-zeros
1496 integer variables, all of which are binary
Scaling...
 A: min|aij| =  1.144e-04  max|aij| =  4.000e+00  ratio =  3.497e+04
GM: min|aij| =  7.313e-02  max|aij| =  1.367e+01  ratio =  1.870e+02
EQ: min|aij| =  5.348e-03  max|aij| =  1.000e+00  ratio =  1.870e+02
2N: min|aij| =  3.660e-03  max|aij| =  1.759e+00  ratio =  4.805e+02
Constructing initial basis...
Size of triangular part is 1513
Solving LP relaxation...
GLPK Simplex Optimizer 5.0
1513 rows, 2996 columns, 10480 non-zeros
      0: obj =   8.000000000e+00 inf =   1.950e+01 (9)
     91: obj =   4.392990434e-01 inf =   0.000e+00 (0)
*   295: obj =  -1.999913748e+00 inf =   2.665e-15 (0)
OPTIMAL LP SOLUTION FOUND
Integer optimization begins...
Long-step dual simplex will be used
+   295: mip =     not found yet >=              -inf        (1; 0)
+   510: >>>>>  -1.999913748e+00 >=  -1.999913748e+00 < 0.1% (215; 0)
+   510: mip =  -1.999913748e+00 >=     tree is empty   0.0% (0; 429)
INTEGER OPTIMAL SOLUTION FOUND
Time used:   0.5 secs
Memory used: 4.4 Mb (4568542 bytes)
